row=10;
column=10;
Board=[|0,0,2,0,0,9,0,0,7,8|0,0,0,8,0,0,0,7,0,10|0,0,3,4,5,10,6,0,1,0|0,0,10,0,8,0,0,2,0,7|10,6,0,7,0,1,0,4,0,0|0,2,4,1,0,8,0,3,10,6|0,3,1,6,0,7,10,0,0,9|7,0,0,2,0,0,0,0,0,1|6,1,0,3,0,0,2,10,9,0|0,4,7,0,0,0,0,9,3,5|];
OE=[|0,0,0,1,0,1,1,1,1,0|1,1,0,0,1,0,1,1,0,0|1,1,1,0,1,0,0,0,1,0|1,1,0,1,0,0,1,0,0,1|0,0,1,1,0,1,1,0,0,1|1,0,0,1,1,0,1,1,0,0|0,1,1,0,0,1,0,1,0,1|1,0,1,0,0,1,0,0,1,1|0,1,0,1,1,1,0,0,1,0|0,0,1,0,1,0,0,1,1,1|];
